SDVRP instances/p01/p01_1030_tsplib0_splitx10_0.vrp
NAME:.\SDVRP_splitx10_
BEST_KNOWN: 0
COMMENT: 0
DIMENSION: 204
CAPACITY: 1600
EDGE_WEIGHT_FORMAT: FUNCTION
EDGE_WEIGHT_TYPE: EXACT_2D
NODE_COORD_SECTION
1 0.00000 0.00000
2 7 12
3 7 12
4 7 12
5 7 12
6 19 9
7 19 9
8 19 9
9 19 9
10 19 9
11 22 24
12 22 24
13 22 24
14 22 24
15 22 24
16 22 24
17 -10 -14
18 -10 -14
19 10 -10
20 10 -10
21 10 -10
22 10 -10
23 10 -10
24 10 -10
25 -9 7
26 -9 7
27 -9 7
28 -9 7
29 -13 23
30 -13 23
31 -13 23
32 -13 23
33 -13 23
34 -13 23
35 -13 23
36 1 22
37 1 22
38 1 22
39 22 -7
40 22 -7
41 22 -7
42 22 -7
43 22 -7
44 21 -19
45 21 -19
46 12 1
47 12 1
48 12 1
49 1 -8
50 1 -8
51 1 -8
52 1 -8
53 1 -8
54 -25 -15
55 -25 -15
56 -25 -15
57 -25 -15
58 -25 -15
59 -25 -15
60 -18 2
61 6 -24
62 6 -24
63 6 -24
64 6 -24
65 6 -24
66 22 1
67 22 1
68 22 1
69 -3 -17
70 -3 -17
71 -3 -17
72 -13 -7
73 -17 -27
74 -17 -27
75 -17 -27
76 -17 -27
77 27 18
78 27 18
79 32 2
80 32 2
81 32 2
82 12 17
83 12 17
84 12 17
85 12 17
86 -14 17
87 -14 17
88 -14 17
89 -14 17
90 -22 12
91 -22 12
92 -22 12
93 -23 -2
94 -23 -2
95 -23 -2
96 -3 28
97 -3 28
98 -3 28
99 -3 28
100 -3 28
101 -3 28
102 0 8
103 0 8
104 13 27
105 13 27
106 28 8
107 28 8
108 28 8
109 28 8
110 28 -13
111 28 -13
112 28 -13
113 7 29
114 7 29
115 7 29
116 7 29
117 8 6
118 8 6
119 8 6
120 16 -30
121 16 -30
122 16 -30
123 16 -30
124 31 -7
125 31 -7
126 31 -7
127 31 -7
128 31 -7
129 32 23
130 32 23
131 32 23
132 32 23
133 33 29
134 33 29
135 33 29
136 33 29
137 33 29
138 33 29
139 33 29
140 2 -18
141 2 -18
142 15 -5
143 15 -5
144 15 -5
145 15 -5
146 15 -5
147 15 -5
148 15 -5
149 29 -25
150 29 -25
151 29 -25
152 29 -25
153 29 -25
154 29 -25
155 29 -25
156 -25 -34
157 -25 -34
158 -25 -34
159 -25 -34
160 -20 -23
161 -20 -23
162 -20 -23
163 -20 -23
164 -20 -23
165 -9 -30
166 -9 -30
167 -9 -30
168 -25 24
169 -25 24
170 -25 24
171 -25 24
172 0 -25
173 0 -25
174 0 -25
175 0 -25
176 0 -25
177 9 -30
178 9 -30
179 9 -30
180 9 -30
181 9 -30
182 2 -1
183 2 -1
184 2 -1
185 -5 -8
186 -5 -8
187 -5 -8
188 -5 -8
189 -5 -8
190 -5 -8
191 -5 -8
192 -5 15
193 -5 15
194 -5 15
195 -5 15
196 -5 15
197 -5 15
198 18 -12
199 18 -12
200 18 -12
201 18 -12
202 26 -3
203 26 -3
204 26 -3
DEMAND_SECTION
1 0
2 320
3 80
4 16
5 14
6 160
7 80
8 16
9 16
10 8
11 160
12 16
13 16
14 16
15 16
16 6
17 320
18 10
19 320
20 80
21 16
22 16
23 16
24 2
25 320
26 80
27 16
28 14
29 160
30 80
31 16
32 16
33 16
34 16
35 6
36 160
37 16
38 14
39 160
40 16
41 16
42 16
43 12
44 160
45 10
46 320
47 80
48 10
49 160
50 80
51 16
52 16
53 8
54 160
55 80
56 16
57 16
58 16
59 12
60 320
61 320
62 16
63 16
64 16
65 12
66 160
67 80
68 10
69 160
70 16
71 4
72 320
73 320
74 80
75 16
76 14
77 320
78 10
79 160
80 16
81 14
82 320
83 16
84 16
85 8
86 320
87 16
88 16
89 8
90 320
91 16
92 4
93 320
94 80
95 10
96 320
97 16
98 16
99 16
100 16
101 6
102 160
103 10
104 320
105 80
106 160
107 16
108 16
109 8
110 160
111 16
112 14
113 320
114 80
115 16
116 14
117 320
118 80
119 10
120 320
121 80
122 16
123 4
124 160
125 16
126 16
127 16
128 12
129 320
130 80
131 16
132 14
133 160
134 80
135 16
136 16
137 16
138 16
139 6
140 320
141 80
142 160
143 80
144 16
145 16
146 16
147 16
148 6
149 160
150 80
151 16
152 16
153 16
154 16
155 6
156 320
157 80
158 16
159 4
160 160
161 16
162 16
163 16
164 12
165 160
166 16
167 4
168 320
169 16
170 16
171 8
172 320
173 16
174 16
175 16
176 2
177 320
178 80
179 16
180 16
181 8
182 160
183 80
184 10
185 160
186 80
187 16
188 16
189 16
190 16
191 6
192 160
193 80
194 16
195 16
196 16
197 2
198 320
199 80
200 16
201 14
202 320
203 16
204 14
DEPOT_SECTION
1
-1
EOF