SDVRP instances/p01/p01_1030_tsplib0_splitx10_0.sol
203 -8 9 6 7 5 76 77 128 130 131 129 135 132 134 136 133 138 137 15 13 11 12 10 14 -17 16 68 173 172 174 171 175 60 62 139 140 -21 23 22 20 19 18 199 200 198 197 142 141 45 47 46 -27 26 24 25 59 93 92 94 71 -44 43 111 109 110 149 148 150 154 151 153 152 120 122 119 121 180 178 179 176 177 64 61 63 -57 53 56 54 55 58 163 159 161 160 162 157 156 155 158 73 72 75 74 165 166 164 70 69 -65 67 66 105 106 108 107 78 80 79 124 125 123 127 126 201 202 203 38 40 42 41 39 145 146 144 147 143 183 182 -90 89 91 170 169 168 167 28 34 32 33 29 30 31 86 87 88 85 196 191 194 -102 101 4 3 1 2 84 82 81 83 116 118 117 -103 104 112 114 113 115 100 95 98 97 99 96 37 35 36 195 193 192 -181 52 51 50 49 48 185 184 189 190 187 188 186 0 





OBJ=
773.244
BEST_KNOWN=
0.000